NAME: rue_20_1
TYPE: TSP
DIMENSION: 20
EDGE_WEIGHT_TYPE: EUC_2D
NODE_COORD_SECTION
1 10 50
2 16 52
3 65 55
4 29 78
5 90 70
6 94 14
7 30 26
8 9 14
9 74 93
10 1 87
11 41 31
12 37 31
13 17 90
14 12 13
15 55 66
16 89 32
17 63 58
18 34 37
19 73 28
20 79 19
